(set-logic QF_UF)
(declare-fun G101 () Bool)
(declare-fun G104 () Bool)
(declare-fun G107 () Bool)
(declare-fun G110 () Bool)
(declare-fun G113 () Bool)
(declare-fun G116 () Bool)
(declare-fun G119 () Bool)
(declare-fun G122 () Bool)
(declare-fun G125 () Bool)
(declare-fun G128 () Bool)
(declare-fun G131 () Bool)
(declare-fun G134 () Bool)
(declare-fun G137 () Bool)
(declare-fun G140 () Bool)
(declare-fun G143 () Bool)
(declare-fun G146 () Bool)
(declare-fun G210 () Bool)
(declare-fun G214 () Bool)
(declare-fun G217 () Bool)
(declare-fun G221 () Bool)
(declare-fun G224 () Bool)
(declare-fun G227 () Bool)
(declare-fun G234 () Bool)
(declare-fun G237 () Bool)
(declare-fun G469 () Bool)
(declare-fun G472 () Bool)
(declare-fun G475 () Bool)
(declare-fun G478 () Bool)
(declare-fun G898 () Bool)
(declare-fun G900 () Bool)
(declare-fun G902 () Bool)
(declare-fun G952 () Bool)
(declare-fun G953 () Bool)
(assert (let ((.def_0 (not G137))) (let ((.def_1 (not G125))) (let ((.def_2 (and .def_1 G140))) (let ((.def_3 (not .def_2))) (let ((.def_4 (not G140))) (let ((.def_5 (and .def_4 G125))) (let ((.def_6 (not .def_5))) (let ((.def_7 (and .def_6 .def_3))) (let ((.def_8 (not G146))) (let ((.def_9 (and .def_8 .def_7))) (let ((.def_10 (not .def_9))) (let ((.def_11 (not .def_7))) (let ((.def_12 (and G146 .def_11))) (let ((.def_13 (not .def_12))) (let ((.def_14 (and .def_13 .def_10))) (let ((.def_15 (not G131))) (let ((.def_16 (not G237))) (let ((.def_17 (not G953))) (let ((.def_18 (and .def_17 G214 .def_16))) (let ((.def_19 (and G143 .def_18))) (let ((.def_20 (not .def_19))) (let ((.def_21 (not .def_18))) (let ((.def_22 (not G143))) (let ((.def_23 (and .def_22 .def_21))) (let ((.def_24 (not .def_23))) (let ((.def_25 (and .def_24 .def_20))) (let ((.def_26 (and .def_25 .def_15))) (let ((.def_27 (not .def_26))) (let ((.def_28 (not .def_25))) (let ((.def_29 (and .def_28 G131))) (let ((.def_30 (not .def_29))) (let ((.def_31 (and .def_30 .def_27))) (let ((.def_32 (not .def_31))) (let ((.def_33 (and .def_32 .def_14))) (let ((.def_34 (not .def_33))) (let ((.def_35 (not .def_14))) (let ((.def_36 (and .def_35 .def_31))) (let ((.def_37 (not .def_36))) (let ((.def_38 (and .def_37 .def_34))) (let ((.def_39 (not G104))) (let ((.def_40 (not G113))) (let ((.def_41 (and G122 .def_40))) (let ((.def_42 (not .def_41))) (let ((.def_43 (not G122))) (let ((.def_44 (and .def_43 G113))) (let ((.def_45 (not .def_44))) (let ((.def_46 (and .def_45 .def_42))) (let ((.def_47 (and .def_46 .def_39))) (let ((.def_48 (not .def_47))) (let ((.def_49 (not .def_46))) (let ((.def_50 (and G104 .def_49))) (let ((.def_51 (not .def_50))) (let ((.def_52 (and .def_51 .def_48))) (let ((.def_53 (not .def_52))) (let ((.def_54 (and .def_53 .def_38))) (let ((.def_55 (not .def_54))) (let ((.def_56 (not .def_38))) (let ((.def_57 (and .def_52 .def_56))) (let ((.def_58 (not .def_57))) (let ((.def_59 (and .def_58 .def_55))) (let ((.def_60 (not .def_59))) (let ((.def_61 (not G902))) (let ((.def_62 (and .def_61 .def_60))) (let ((.def_63 (not G475))) (let ((.def_64 (and .def_63 .def_62))) (let ((.def_65 (not .def_64))) (let ((.def_66 (not .def_62))) (let ((.def_67 (and .def_66 G475))) (let ((.def_68 (not .def_67))) (let ((.def_69 (and .def_68 .def_65))) (let ((.def_70 (and .def_17 G234 G217))) (let ((.def_71 (not .def_70))) (let ((.def_72 (and G116 .def_43))) (let ((.def_73 (not .def_72))) (let ((.def_74 (not G116))) (let ((.def_75 (and .def_74 G122))) (let ((.def_76 (not .def_75))) (let ((.def_77 (and .def_76 .def_73))) (let ((.def_78 (not .def_77))) (let ((.def_79 (and .def_78 G107))) (let ((.def_80 (not .def_79))) (let ((.def_81 (not G107))) (let ((.def_82 (and .def_77 .def_81))) (let ((.def_83 (not .def_82))) (let ((.def_84 (and .def_83 .def_80))) (let ((.def_85 (not G134))) (let ((.def_86 (not G128))) (let ((.def_87 (and .def_86 G143))) (let ((.def_88 (not .def_87))) (let ((.def_89 (and .def_22 G128))) (let ((.def_90 (not .def_89))) (let ((.def_91 (and .def_90 .def_88))) (let ((.def_92 (and .def_91 .def_85))) (let ((.def_93 (not .def_92))) (let ((.def_94 (not .def_91))) (let ((.def_95 (and G134 .def_94))) (let ((.def_96 (not .def_95))) (let ((.def_97 (and .def_96 .def_93))) (let ((.def_98 (not .def_97))) (let ((.def_99 (and .def_98 .def_84))) (let ((.def_100 (not .def_99))) (let ((.def_101 (not .def_84))) (let ((.def_102 (and .def_101 .def_97))) (let ((.def_103 (not .def_102))) (let ((.def_104 (and .def_103 .def_100))) (let ((.def_105 (not .def_104))) (let ((.def_106 (and .def_105 .def_71))) (let ((.def_107 (not .def_106))) (let ((.def_108 (and .def_104 .def_70))) (let ((.def_109 (not .def_108))) (let ((.def_110 (and .def_109 .def_107))) (let ((.def_111 (not .def_110))) (let ((.def_112 (and .def_61 .def_111))) (let ((.def_113 (not G478))) (let ((.def_114 (and .def_113 .def_112))) (let ((.def_115 (not .def_114))) (let ((.def_116 (not .def_112))) (let ((.def_117 (and .def_116 G478))) (let ((.def_118 (not .def_117))) (let ((.def_119 (and .def_118 .def_115))) (let ((.def_120 (and .def_119 .def_69))) (let ((.def_121 (not G119))) (let ((.def_122 (and G116 .def_121))) (let ((.def_123 (not .def_122))) (let ((.def_124 (and G119 .def_74))) (let ((.def_125 (not .def_124))) (let ((.def_126 (and .def_125 .def_123))) (let ((.def_127 (not .def_126))) (let ((.def_128 (and G113 .def_127))) (let ((.def_129 (not .def_128))) (let ((.def_130 (and .def_40 .def_126))) (let ((.def_131 (not .def_130))) (let ((.def_132 (and .def_131 .def_129))) (let ((.def_133 (not G101))) (let ((.def_134 (and .def_81 G104))) (let ((.def_135 (not .def_134))) (let ((.def_136 (and G107 .def_39))) (let ((.def_137 (not .def_136))) (let ((.def_138 (and .def_137 .def_135))) (let ((.def_139 (and .def_138 .def_133))) (let ((.def_140 (not .def_139))) (let ((.def_141 (not .def_138))) (let ((.def_142 (and .def_141 G101))) (let ((.def_143 (not .def_142))) (let ((.def_144 (and .def_143 .def_140))) (let ((.def_145 (and .def_144 .def_132))) (let ((.def_146 (not .def_145))) (let ((.def_147 (not .def_144))) (let ((.def_148 (not .def_132))) (let ((.def_149 (and .def_148 .def_147))) (let ((.def_150 (not .def_149))) (let ((.def_151 (and .def_150 .def_146))) (let ((.def_152 (not G110))) (let ((.def_153 (and .def_152 G122))) (let ((.def_154 (not .def_153))) (let ((.def_155 (and G110 .def_43))) (let ((.def_156 (not .def_155))) (let ((.def_157 (and .def_156 .def_154))) (let ((.def_158 (and .def_157 .def_151))) (let ((.def_159 (not .def_158))) (let ((.def_160 (not .def_151))) (let ((.def_161 (not .def_157))) (let ((.def_162 (and .def_161 .def_160))) (let ((.def_163 (not .def_162))) (let ((.def_164 (and .def_163 .def_159))) (let ((.def_165 (and .def_22 G146))) (let ((.def_166 (not .def_165))) (let ((.def_167 (and .def_8 G143))) (let ((.def_168 (not .def_167))) (let ((.def_169 (and .def_168 .def_166))) (let ((.def_170 (not .def_169))) (let ((.def_171 (and G128 .def_170))) (let ((.def_172 (not .def_171))) (let ((.def_173 (and .def_169 .def_86))) (let ((.def_174 (not .def_173))) (let ((.def_175 (and .def_174 .def_172))) (let ((.def_176 (and .def_175 .def_1))) (let ((.def_177 (not .def_176))) (let ((.def_178 (not .def_175))) (let ((.def_179 (and .def_178 G125))) (let ((.def_180 (not .def_179))) (let ((.def_181 (and .def_180 .def_177))) (let ((.def_182 (and G224 .def_17))) (let ((.def_183 (and .def_182 .def_181))) (let ((.def_184 (not .def_183))) (let ((.def_185 (not .def_182))) (let ((.def_186 (not .def_181))) (let ((.def_187 (and .def_186 .def_185))) (let ((.def_188 (not .def_187))) (let ((.def_189 (and .def_188 .def_184))) (let ((.def_190 (and .def_189 .def_164))) (let ((.def_191 (not .def_190))) (let ((.def_192 (not .def_164))) (let ((.def_193 (not .def_189))) (let ((.def_194 (and .def_193 .def_192))) (let ((.def_195 (not .def_194))) (let ((.def_196 (and .def_195 .def_191))) (let ((.def_197 (and .def_196 .def_61))) (let ((.def_198 (not .def_197))) (let ((.def_199 (and .def_61 .def_16))) (let ((.def_200 (not .def_199))) (let ((.def_201 (and .def_200 G210))) (let ((.def_202 (and .def_201 .def_198))) (let ((.def_203 (not .def_202))) (let ((.def_204 (not .def_201))) (let ((.def_205 (and .def_204 .def_197))) (let ((.def_206 (not .def_205))) (let ((.def_207 (and .def_206 .def_203))) (let ((.def_208 (and G214 .def_200))) (let ((.def_209 (not .def_208))) (let ((.def_210 (and .def_209 .def_207))) (let ((.def_211 (and G237 G234))) (let ((.def_212 (not .def_211))) (let ((.def_213 (and .def_212 .def_17 G952))) (let ((.def_214 (not .def_213))) (let ((.def_215 (not G900))) (let ((.def_216 (and .def_212 G953 G902 .def_215))) (let ((.def_217 (not .def_216))) (let ((.def_218 (and .def_217 .def_214))) (let ((.def_219 (not .def_218))) (let ((.def_220 (and G128 .def_121))) (let ((.def_221 (not .def_220))) (let ((.def_222 (and G119 .def_86))) (let ((.def_223 (not .def_222))) (let ((.def_224 (and .def_223 .def_221))) (let ((.def_225 (not .def_224))) (let ((.def_226 (and .def_225 G110))) (let ((.def_227 (not .def_226))) (let ((.def_228 (and .def_152 .def_224))) (let ((.def_229 (not .def_228))) (let ((.def_230 (and .def_229 .def_227))) (let ((.def_231 (and .def_7 .def_8))) (let ((.def_232 (not .def_231))) (let ((.def_233 (and .def_13 .def_232))) (let ((.def_234 (not .def_233))) (let ((.def_235 (and .def_234 .def_230))) (let ((.def_236 (not .def_235))) (let ((.def_237 (not .def_230))) (let ((.def_238 (and .def_233 .def_237))) (let ((.def_239 (not .def_238))) (let ((.def_240 (and .def_239 .def_236))) (let ((.def_241 (not .def_240))) (let ((.def_242 (and G234 G221 .def_17))) (let ((.def_243 (and G137 .def_242))) (let ((.def_244 (not .def_243))) (let ((.def_245 (not .def_242))) (let ((.def_246 (and .def_245 .def_0))) (let ((.def_247 (not .def_246))) (let ((.def_248 (and .def_247 .def_244))) (let ((.def_249 (not .def_248))) (let ((.def_250 (and .def_249 .def_241))) (let ((.def_251 (not .def_250))) (let ((.def_252 (and .def_248 .def_240))) (let ((.def_253 (not .def_252))) (let ((.def_254 (and .def_253 .def_251))) (let ((.def_255 (not .def_254))) (let ((.def_256 (and .def_255 .def_61))) (let ((.def_257 (not .def_256))) (let ((.def_258 (and .def_61 G234))) (let ((.def_259 (not .def_258))) (let ((.def_260 (and .def_259 G217))) (let ((.def_261 (and .def_260 .def_257))) (let ((.def_262 (not .def_261))) (let ((.def_263 (not .def_260))) (let ((.def_264 (and .def_263 .def_256))) (let ((.def_265 (not .def_264))) (let ((.def_266 (and .def_265 .def_262))) (let ((.def_267 (not .def_266))) (let ((.def_268 (and .def_17 .def_16 G210))) (let ((.def_269 (and G101 .def_268))) (let ((.def_270 (not .def_269))) (let ((.def_271 (not .def_268))) (let ((.def_272 (and .def_133 .def_271))) (let ((.def_273 (not .def_272))) (let ((.def_274 (and .def_273 .def_270))) (let ((.def_275 (not .def_274))) (let ((.def_276 (and .def_74 G119))) (let ((.def_277 (not .def_276))) (let ((.def_278 (and .def_123 .def_277))) (let ((.def_279 (and .def_40 .def_278))) (let ((.def_280 (not .def_279))) (let ((.def_281 (not .def_278))) (let ((.def_282 (and .def_281 G113))) (let ((.def_283 (not .def_282))) (let ((.def_284 (and .def_283 .def_280))) (let ((.def_285 (and .def_0 G134))) (let ((.def_286 (not .def_285))) (let ((.def_287 (and .def_85 G137))) (let ((.def_288 (not .def_287))) (let ((.def_289 (and .def_288 .def_286))) (let ((.def_290 (and .def_15 .def_289))) (let ((.def_291 (not .def_290))) (let ((.def_292 (not .def_289))) (let ((.def_293 (and .def_292 G131))) (let ((.def_294 (not .def_293))) (let ((.def_295 (and .def_294 .def_291))) (let ((.def_296 (and .def_175 .def_295))) (let ((.def_297 (not .def_296))) (let ((.def_298 (not .def_295))) (let ((.def_299 (and .def_298 .def_178))) (let ((.def_300 (not .def_299))) (let ((.def_301 (and .def_300 .def_297))) (let ((.def_302 (and .def_301 .def_284))) (let ((.def_303 (not .def_302))) (let ((.def_304 (not .def_284))) (let ((.def_305 (not .def_301))) (let ((.def_306 (and .def_305 .def_304))) (let ((.def_307 (not .def_306))) (let ((.def_308 (and .def_307 .def_303))) (let ((.def_309 (and .def_308 .def_275))) (let ((.def_310 (not .def_309))) (let ((.def_311 (not .def_308))) (let ((.def_312 (and .def_274 .def_311))) (let ((.def_313 (not .def_312))) (let ((.def_314 (and .def_313 .def_310))) (let ((.def_315 (not .def_314))) (let ((.def_316 (and .def_61 .def_315))) (let ((.def_317 (not .def_316))) (let ((.def_318 (and G472 .def_317))) (let ((.def_319 (not .def_318))) (let ((.def_320 (not G472))) (let ((.def_321 (and .def_320 .def_316))) (let ((.def_322 (not .def_321))) (let ((.def_323 (and .def_322 .def_319))) (let ((.def_324 (not .def_323))) (let ((.def_325 (and .def_324 .def_267))) (let ((.def_326 (and .def_4 G110))) (let ((.def_327 (not .def_326))) (let ((.def_328 (and G140 .def_152))) (let ((.def_329 (not .def_328))) (let ((.def_330 (and .def_329 .def_327))) (let ((.def_331 (and .def_17 G227))) (let ((.def_332 (and .def_331 .def_330))) (let ((.def_333 (not .def_332))) (let ((.def_334 (not .def_330))) (let ((.def_335 (not .def_331))) (let ((.def_336 (and .def_335 .def_334))) (let ((.def_337 (not .def_336))) (let ((.def_338 (and .def_337 .def_333))) (let ((.def_339 (and G104 .def_81))) (let ((.def_340 (not .def_339))) (let ((.def_341 (and .def_39 G107))) (let ((.def_342 (not .def_341))) (let ((.def_343 (and .def_342 .def_340))) (let ((.def_344 (and .def_343 .def_133))) (let ((.def_345 (not .def_344))) (let ((.def_346 (not .def_343))) (let ((.def_347 (and .def_346 G101))) (let ((.def_348 (not .def_347))) (let ((.def_349 (and .def_348 .def_345))) (let ((.def_350 (not .def_349))) (let ((.def_351 (and G146 .def_22))) (let ((.def_352 (not .def_351))) (let ((.def_353 (and .def_352 .def_168))) (let ((.def_354 (and .def_86 .def_353))) (let ((.def_355 (not .def_354))) (let ((.def_356 (not .def_353))) (let ((.def_357 (and G128 .def_356))) (let ((.def_358 (not .def_357))) (let ((.def_359 (and .def_358 .def_355))) (let ((.def_360 (not .def_359))) (let ((.def_361 (and .def_360 .def_350))) (let ((.def_362 (not .def_361))) (let ((.def_363 (and .def_349 .def_359))) (let ((.def_364 (not .def_363))) (let ((.def_365 (and .def_364 .def_362))) (let ((.def_366 (not .def_365))) (let ((.def_367 (and .def_298 .def_366))) (let ((.def_368 (not .def_367))) (let ((.def_369 (and .def_295 .def_365))) (let ((.def_370 (not .def_369))) (let ((.def_371 (and .def_370 .def_368))) (let ((.def_372 (and .def_371 .def_338))) (let ((.def_373 (not .def_372))) (let ((.def_374 (not .def_338))) (let ((.def_375 (not .def_371))) (let ((.def_376 (and .def_375 .def_374))) (let ((.def_377 (not .def_376))) (let ((.def_378 (and .def_377 .def_373))) (let ((.def_379 (not .def_378))) (let ((.def_380 (and .def_61 .def_379))) (let ((.def_381 (not .def_380))) (let ((.def_382 (and .def_381 G469))) (let ((.def_383 (not .def_382))) (let ((.def_384 (not G469))) (let ((.def_385 (and .def_384 .def_380))) (let ((.def_386 (not .def_385))) (let ((.def_387 (and .def_386 .def_383))) (let ((.def_388 (not .def_387))) (let ((.def_389 (and G221 .def_259))) (let ((.def_390 (not .def_389))) (let ((.def_391 (and .def_390 .def_388))) (let ((.def_392 (and .def_391 .def_325 .def_219 .def_210 .def_120))) (let ((.def_393 (and .def_392 .def_0))) (let ((.def_394 (not .def_393))) (let ((.def_395 (not .def_392))) (let ((.def_396 (and G137 .def_395))) (let ((.def_397 (not .def_396))) (let ((.def_398 (and .def_397 .def_394))) (let ((.def_399 (and G224 G898))) (let ((.def_400 (not .def_399))) (let ((.def_401 (and .def_400 G953))) (let ((.def_402 (and .def_147 .def_148))) (let ((.def_403 (not .def_402))) (let ((.def_404 (and .def_403 .def_146))) (let ((.def_405 (and .def_157 .def_404))) (let ((.def_406 (not .def_405))) (let ((.def_407 (not .def_404))) (let ((.def_408 (and .def_407 .def_161))) (let ((.def_409 (not .def_408))) (let ((.def_410 (and .def_409 .def_406))) (let ((.def_411 (not G898))) (let ((.def_412 (and .def_411 G953))) (let ((.def_413 (not .def_412))) (let ((.def_414 (and .def_413 .def_410))) (let ((.def_415 (not .def_414))) (let ((.def_416 (and .def_390 .def_387))) (let ((.def_417 (not .def_207))) (let ((.def_418 (and .def_417 .def_209))) (let ((.def_419 (and .def_411 G953 .def_212 G902))) (let ((.def_420 (not .def_419))) (let ((.def_421 (and .def_214 .def_420))) (let ((.def_422 (not .def_421))) (let ((.def_423 (and .def_324 .def_266))) (let ((.def_424 (not .def_69))) (let ((.def_425 (and .def_119 .def_424))) (let ((.def_426 (and .def_425 .def_423 .def_422 .def_418 .def_416))) (let ((.def_427 (not .def_426))) (let ((.def_428 (and .def_325 .def_422 .def_418 .def_416 .def_120))) (let ((.def_429 (not .def_428))) (let ((.def_430 (and .def_120 .def_423 .def_422 .def_418 .def_391))) (let ((.def_431 (not .def_430))) (let ((.def_432 (not .def_119))) (let ((.def_433 (and .def_69 .def_432))) (let ((.def_434 (and .def_323 .def_266))) (let ((.def_435 (and .def_434 .def_433 .def_422 .def_418 .def_391))) (let ((.def_436 (not .def_435))) (let ((.def_437 (and .def_323 .def_267))) (let ((.def_438 (and .def_120 .def_437 .def_422 .def_418 .def_391))) (let ((.def_439 (not .def_438))) (let ((.def_440 (and .def_434 .def_425 .def_422 .def_418 .def_391))) (let ((.def_441 (not .def_440))) (let ((.def_442 (and .def_432 .def_424))) (let ((.def_443 (and .def_434 .def_442 .def_422 .def_418 .def_416))) (let ((.def_444 (not .def_443))) (let ((.def_445 (and .def_423 .def_433 .def_422 .def_418 .def_416))) (let ((.def_446 (not .def_445))) (let ((.def_447 (and .def_446 .def_444 .def_441 .def_439 .def_436 .def_431 .def_429 .def_427))) (let ((.def_448 (not .def_447))) (let ((.def_449 (and .def_17 .def_448))) (let ((.def_450 (and .def_449 .def_415))) (let ((.def_451 (not .def_450))) (let ((.def_452 (not .def_449))) (let ((.def_453 (and .def_452 .def_414))) (let ((.def_454 (not .def_453))) (let ((.def_455 (and .def_454 .def_451))) (let ((.def_456 (and .def_455 .def_401))) (let ((.def_457 (not .def_456))) (let ((.def_458 (not .def_401))) (let ((.def_459 (not .def_455))) (let ((.def_460 (and .def_459 .def_458))) (let ((.def_461 (not .def_460))) (let ((.def_462 (and .def_461 .def_457))) (let ((.def_463 (not .def_462))) (let ((.def_464 (and .def_391 .def_423 .def_219 .def_433 .def_210))) (let ((.def_465 (not .def_464))) (let ((.def_466 (and .def_325 .def_219 .def_433 .def_418 .def_391))) (let ((.def_467 (not .def_466))) (let ((.def_468 (and .def_391 .def_325 .def_425 .def_219 .def_418))) (let ((.def_469 (not .def_468))) (let ((.def_470 (and .def_391 .def_425 .def_423 .def_219 .def_210))) (let ((.def_471 (not .def_470))) (let ((.def_472 (and .def_425 .def_219 .def_437 .def_418 .def_416))) (let ((.def_473 (not .def_472))) (let ((.def_474 (and .def_391 .def_425 .def_219 .def_437 .def_210))) (let ((.def_475 (not .def_474))) (let ((.def_476 (and .def_391 .def_442 .def_423 .def_219 .def_418))) (let ((.def_477 (not .def_476))) (let ((.def_478 (and .def_477 .def_475 .def_473 .def_471 .def_469 .def_467 .def_395 .def_465))) (let ((.def_479 (and .def_478 .def_447))) (let ((.def_480 (not .def_479))) (let ((.def_481 (and .def_480 G902 G478))) (let ((.def_482 (and .def_110 .def_481))) (let ((.def_483 (not .def_482))) (let ((.def_484 (not .def_481))) (let ((.def_485 (and .def_111 .def_484))) (let ((.def_486 (not .def_485))) (let ((.def_487 (and .def_486 .def_483))) (let ((.def_488 (not .def_487))) (let ((.def_489 (not G952))) (let ((.def_490 (and .def_489 G953))) (let ((.def_491 (not .def_490))) (let ((.def_492 (and .def_491 .def_488))) (let ((.def_493 (not .def_492))) (let ((.def_494 (and .def_480 G902 .def_260))) (let ((.def_495 (and .def_494 .def_254))) (let ((.def_496 (not .def_495))) (let ((.def_497 (not .def_494))) (let ((.def_498 (and .def_497 .def_255))) (let ((.def_499 (not .def_498))) (let ((.def_500 (and .def_499 .def_496))) (let ((.def_501 (not .def_500))) (let ((.def_502 (and .def_501 .def_491))) (let ((.def_503 (and .def_435 .def_81))) (let ((.def_504 (not .def_503))) (let ((.def_505 (and G107 .def_436))) (let ((.def_506 (not .def_505))) (let ((.def_507 (and .def_506 .def_504))) (let ((.def_508 (and G900 G227))) (let ((.def_509 (not .def_508))) (let ((.def_510 (and G953 .def_509))) (let ((.def_511 (and G125 .def_4))) (let ((.def_512 (not .def_511))) (let ((.def_513 (and .def_3 .def_512))) (let ((.def_514 (and G137 .def_85))) (let ((.def_515 (not .def_514))) (let ((.def_516 (and .def_515 .def_286))) (let ((.def_517 (not .def_516))) (let ((.def_518 (and .def_517 G131))) (let ((.def_519 (not .def_518))) (let ((.def_520 (and .def_15 .def_516))) (let ((.def_521 (not .def_520))) (let ((.def_522 (and .def_521 .def_519))) (let ((.def_523 (and .def_522 .def_359))) (let ((.def_524 (not .def_523))) (let ((.def_525 (not .def_522))) (let ((.def_526 (and .def_360 .def_525))) (let ((.def_527 (not .def_526))) (let ((.def_528 (and .def_527 .def_524))) (let ((.def_529 (and .def_528 .def_513))) (let ((.def_530 (not .def_529))) (let ((.def_531 (not .def_513))) (let ((.def_532 (not .def_528))) (let ((.def_533 (and .def_532 .def_531))) (let ((.def_534 (not .def_533))) (let ((.def_535 (and .def_534 .def_530))) (let ((.def_536 (and G953 .def_215))) (let ((.def_537 (not .def_536))) (let ((.def_538 (and .def_537 .def_535))) (let ((.def_539 (not .def_538))) (let ((.def_540 (not .def_478))) (let ((.def_541 (and .def_540 .def_17))) (let ((.def_542 (and .def_541 .def_539))) (let ((.def_543 (not .def_542))) (let ((.def_544 (not .def_541))) (let ((.def_545 (and .def_544 .def_538))) (let ((.def_546 (not .def_545))) (let ((.def_547 (and .def_546 .def_543))) (let ((.def_548 (and .def_547 .def_510))) (let ((.def_549 (not .def_548))) (let ((.def_550 (not .def_510))) (let ((.def_551 (not .def_547))) (let ((.def_552 (and .def_551 .def_550))) (let ((.def_553 (not .def_552))) (let ((.def_554 (and .def_553 .def_549))) (let ((.def_555 (not .def_554))) (let ((.def_556 (and .def_480 G902 G475))) (let ((.def_557 (and .def_59 .def_556))) (let ((.def_558 (not .def_557))) (let ((.def_559 (not .def_556))) (let ((.def_560 (and .def_559 .def_60))) (let ((.def_561 (not .def_560))) (let ((.def_562 (and .def_561 .def_558))) (let ((.def_563 (not .def_562))) (let ((.def_564 (and .def_491 .def_563))) (let ((.def_565 (and .def_152 G140))) (let ((.def_566 (not .def_565))) (let ((.def_567 (and .def_566 .def_327))) (let ((.def_568 (and .def_567 .def_331))) (let ((.def_569 (not .def_568))) (let ((.def_570 (not .def_567))) (let ((.def_571 (and .def_570 .def_335))) (let ((.def_572 (not .def_571))) (let ((.def_573 (and .def_572 .def_569))) (let ((.def_574 (and .def_359 .def_349))) (let ((.def_575 (not .def_574))) (let ((.def_576 (and .def_350 .def_360))) (let ((.def_577 (not .def_576))) (let ((.def_578 (and .def_577 .def_575))) (let ((.def_579 (not .def_578))) (let ((.def_580 (and .def_579 .def_298))) (let ((.def_581 (not .def_580))) (let ((.def_582 (and .def_578 .def_295))) (let ((.def_583 (not .def_582))) (let ((.def_584 (and .def_583 .def_581))) (let ((.def_585 (and .def_584 .def_573))) (let ((.def_586 (not .def_585))) (let ((.def_587 (not .def_573))) (let ((.def_588 (not .def_584))) (let ((.def_589 (and .def_588 .def_587))) (let ((.def_590 (not .def_589))) (let ((.def_591 (and .def_590 .def_586))) (let ((.def_592 (and .def_480 G902 G469))) (let ((.def_593 (and .def_592 .def_591))) (let ((.def_594 (not .def_593))) (let ((.def_595 (not .def_591))) (let ((.def_596 (not .def_592))) (let ((.def_597 (and .def_596 .def_595))) (let ((.def_598 (not .def_597))) (let ((.def_599 (and .def_598 .def_594))) (let ((.def_600 (not .def_599))) (let ((.def_601 (and .def_600 .def_491))) (let ((.def_602 (not .def_601))) (let ((.def_603 (and .def_271 .def_133))) (let ((.def_604 (not .def_603))) (let ((.def_605 (and .def_268 G101))) (let ((.def_606 (not .def_605))) (let ((.def_607 (and .def_606 .def_604))) (let ((.def_608 (and .def_480 G472 G902))) (let ((.def_609 (and .def_178 .def_298))) (let ((.def_610 (not .def_609))) (let ((.def_611 (and .def_610 .def_297))) (let ((.def_612 (and .def_611 .def_284))) (let ((.def_613 (not .def_612))) (let ((.def_614 (not .def_611))) (let ((.def_615 (and .def_304 .def_614))) (let ((.def_616 (not .def_615))) (let ((.def_617 (and .def_616 .def_613))) (let ((.def_618 (and .def_617 .def_608))) (let ((.def_619 (not .def_618))) (let ((.def_620 (not .def_608))) (let ((.def_621 (not .def_617))) (let ((.def_622 (and .def_621 .def_620))) (let ((.def_623 (not .def_622))) (let ((.def_624 (and .def_623 .def_619))) (let ((.def_625 (not .def_624))) (let ((.def_626 (and .def_625 .def_607))) (let ((.def_627 (not .def_626))) (let ((.def_628 (not .def_607))) (let ((.def_629 (and .def_624 .def_628))) (let ((.def_630 (not .def_629))) (let ((.def_631 (and .def_630 .def_627))) (let ((.def_632 (not .def_631))) (let ((.def_633 (and .def_632 .def_491))) (let ((.def_634 (not .def_633))) (let ((.def_635 (and .def_4 .def_474))) (let ((.def_636 (not .def_635))) (let ((.def_637 (and G140 .def_475))) (let ((.def_638 (not .def_637))) (let ((.def_639 (and .def_638 .def_636))) (let ((.def_640 (and G125 .def_473))) (let ((.def_641 (not .def_640))) (let ((.def_642 (and .def_1 .def_472))) (let ((.def_643 (not .def_642))) (let ((.def_644 (and .def_643 .def_641))) (let ((.def_645 (and .def_470 .def_15))) (let ((.def_646 (not .def_645))) (let ((.def_647 (and .def_471 G131))) (let ((.def_648 (not .def_647))) (let ((.def_649 (and .def_648 .def_646))) (let ((.def_650 (and .def_40 .def_426))) (let ((.def_651 (not .def_650))) (let ((.def_652 (and G113 .def_427))) (let ((.def_653 (not .def_652))) (let ((.def_654 (and .def_653 .def_651))) (let ((.def_655 (not .def_654))) (let ((.def_656 (and .def_121 .def_428))) (let ((.def_657 (not .def_656))) (let ((.def_658 (and .def_429 G119))) (let ((.def_659 (not .def_658))) (let ((.def_660 (and .def_659 .def_657))) (let ((.def_661 (not .def_660))) (let ((.def_662 (and .def_431 G101))) (let ((.def_663 (not .def_662))) (let ((.def_664 (and .def_133 .def_430))) (let ((.def_665 (not .def_664))) (let ((.def_666 (and .def_665 .def_663))) (let ((.def_667 (not .def_666))) (let ((.def_668 (and .def_667 .def_661 .def_655 .def_649 .def_644 .def_639 .def_634 .def_602 .def_564 .def_555 .def_507 .def_502 .def_493 .def_463 .def_398))) .def_668))))))))))))))))))))))))))))))))))))))))))))))))))))))))))))))))))))))))))))))))))))))))))))))))))))))))))))))))))))))))))))))))))))))))))))))))))))))))))))))))))))))))))))))))))))))))))))))))))))))))))))))))))))))))))))))))))))))))))))))))))))))))))))))))))))))))))))))))))))))))))))))))))))))))))))))))))))))))))))))))))))))))))))))))))))))))))))))))))))))))))))))))))))))))))))))))))))))))))))))))))))))))))))))))))))))))))))))))))))))))))))))))))))))))))))))))))))))))))))))))))))))))))))))))))))))))))))))))))))))))))))))))))))))))))))))))))))))))))))))))))))))))))))))))))))))))))))))))))))))))))))))))))))))))))))))))))))))))))))))))))))))))))))))))))))))))))))))
(check-sat)
